p tw 67 1176
0 1
0 2
0 3
0 4
0 5
0 6
0 7
0 8
0 9
0 10
0 13
0 18
0 22
0 43
0 48
0 49
0 50
0 52
0 53
0 14
0 17
0 19
0 23
0 33
0 44
0 54
1 2
1 3
1 4
1 5
1 6
1 7
1 8
1 9
1 10
1 11
1 12
1 13
1 14
1 15
1 16
1 17
1 18
1 19
1 25
1 26
1 28
1 31
1 32
1 33
1 34
1 23
1 35
1 36
1 37
1 38
1 39
1 20
1 22
1 44
1 48
1 58
1 59
1 60
1 43
1 46
1 50
1 53
1 54
1 65
1 49
1 29
1 40
1 42
1 56
2 3
2 4
2 5
2 6
2 7
2 8
2 9
2 10
2 11
2 12
2 13
2 14
2 15
2 16
2 17
2 18
2 19
2 25
2 26
2 27
2 28
2 29
2 30
2 20
2 34
2 36
2 40
2 44
2 45
3 4
3 5
3 6
3 7
3 8
3 9
3 10
3 25
3 26
3 27
3 28
3 29
3 30
3 14
3 17
3 19
3 23
3 33
3 44
3 52
3 54
3 32
3 40
3 46
3 50
3 60
3 61
3 12
3 35
3 43
3 49
3 57
3 62
3 63
3 13
3 20
3 39
3 42
3 56
3 31
3 55
3 59
4 5
4 6
4 7
4 8
4 9
4 10
4 25
4 26
4 27
4 28
4 29
4 30
4 14
4 17
4 23
4 33
4 35
4 36
4 37
4 38
4 39
4 40
4 41
4 42
4 43
4 19
4 44
4 52
4 54
4 11
4 31
4 45
4 46
4 55
4 56
4 57
4 21
4 53
4 59
4 61
4 63
4 64
4 18
4 32
4 58
4 34
4 47
4 49
4 12
5 6
5 7
5 8
5 9
5 10
5 11
5 12
5 13
5 14
5 15
5 16
5 17
5 18
5 19
5 25
5 26
5 27
5 28
5 29
5 30
5 35
5 40
5 41
5 42
5 43
5 22
5 48
5 49
5 50
5 52
5 53
5 31
5 37
5 60
5 32
5 44
5 46
5 61
5 21
5 24
5 51
5 55
5 59
6 7
6 8
6 9
6 10
6 12
6 16
6 18
6 20
6 21
6 22
6 23
6 24
6 25
6 26
6 27
6 28
6 29
6 30
6 35
6 40
6 41
6 42
6 43
6 13
6 32
6 51
6 52
6 55
6 60
6 31
6 33
6 39
6 53
6 62
7 8
7 9
7 10
7 12
7 16
7 18
7 20
7 21
7 22
7 23
7 24
7 11
7 31
7 40
7 45
7 46
7 55
7 56
7 57
7 25
7 29
7 35
7 43
7 49
7 54
7 62
7 63
7 14
7 26
7 28
7 33
7 34
7 53
7 27
7 37
7 52
7 64
7 65
8 9
8 10
8 11
8 19
8 25
8 26
8 28
8 31
8 32
8 33
8 34
8 14
8 17
8 23
8 44
8 52
8 54
8 13
8 20
8 39
8 46
8 49
8 57
8 65
9 10
9 14
9 15
9 19
9 20
9 30
9 34
9 36
9 40
9 44
9 45
9 13
9 18
9 22
9 43
9 48
9 49
9 50
9 52
9 53
9 11
9 17
9 26
9 28
9 31
9 35
9 37
9 60
9 21
9 59
9 61
9 63
9 64
9 33
9 39
9 46
9 57
9 65
9 27
9 38
9 42
9 47
10 19
10 26
10 30
10 38
10 46
10 47
10 48
10 49
10 50
10 51
10 52
10 11
10 31
10 40
10 45
10 55
10 56
10 57
10 14
10 18
10 25
10 32
10 58
10 27
10 34
10 42
10 43
10 13
10 20
10 29
10 53
10 54
10 63
10 66
10 39
10 12
10 28
10 35
10 44
10 59
11 12
11 13
11 14
11 15
11 16
11 17
11 18
11 19
11 25
11 26
11 28
11 31
11 32
11 33
11 34
11 40
11 45
11 46
11 55
11 56
11 57
11 35
11 37
11 60
11 52
11 58
11 49
11 53
11 54
11 20
11 29
11 50
11 63
11 66
12 13
12 14
12 15
12 16
12 17
12 18
12 19
12 20
12 21
12 22
12 23
12 24
12 25
12 29
12 35
12 43
12 49
12 54
12 57
12 62
12 63
12 28
12 31
12 44
12 55
12 59
12 27
12 45
12 60
12 64
12 66
13 14
13 15
13 16
13 17
13 18
13 19
13 22
13 43
13 48
13 49
13 50
13 52
13 53
13 26
13 46
13 54
13 65
13 21
13 24
13 32
13 51
13 55
13 60
13 31
13 33
13 39
13 62
13 20
13 57
13 29
13 58
13 63
13 66
13 40
13 42
13 56
14 15
14 16
14 17
14 18
14 19
14 23
14 33
14 35
14 36
14 37
14 38
14 39
14 20
14 30
14 34
14 40
14 44
14 45
14 52
14 54
14 25
14 26
14 32
14 58
14 28
14 49
14 53
14 46
14 57
14 65
14 22
14 27
14 56
14 63
14 64
14 31
14 55
14 59
14 24
14 60
14 66
15 16
15 17
15 18
15 19
15 20
15 30
15 34
15 36
15 40
15 44
15 45
15 26
15 43
15 46
15 48
15 50
15 53
15 54
15 65
16 17
16 18
16 19
16 20
16 21
16 22
16 23
16 24
16 31
16 36
16 37
16 44
16 48
16 58
16 59
17 18
17 19
17 23
17 33
17 35
17 36
17 37
17 38
17 39
17 44
17 52
17 54
17 26
17 28
17 31
17 60
18 19
18 20
18 21
18 22
18 23
18 24
18 43
18 48
18 49
18 50
18 52
18 53
18 25
18 26
18 32
18 58
18 31
18 33
18 39
18 62
18 27
18 34
18 38
18 42
18 46
18 47
19 25
19 26
19 28
19 31
19 32
19 33
19 34
19 20
19 30
19 36
19 40
19 44
19 45
19 38
19 46
19 47
19 48
19 49
19 50
19 51
19 52
19 23
19 54
19 35
19 37
19 60
19 21
19 53
19 59
19 61
19 63
19 64
20 21
20 22
20 23
20 24
20 30
20 34
20 36
20 40
20 44
20 45
20 31
20 37
20 48
20 58
20 59
20 33
20 39
20 46
20 49
20 57
20 65
20 29
20 50
20 53
20 54
20 63
20 66
20 42
20 56
21 22
21 23
21 24
21 28
21 30
21 53
21 59
21 61
21 63
21 64
21 26
21 32
21 51
21 52
21 55
21 60
21 31
21 33
21 39
21 43
21 62
22 23
22 24
22 43
22 48
22 49
22 50
22 52
22 53
22 31
22 36
22 37
22 44
22 58
22 59
22 27
22 56
22 63
22 64
22 65
23 24
23 33
23 35
23 36
23 37
23 38
23 39
23 44
23 52
23 54
23 27
23 49
23 56
23 63
23 64
23 65
24 26
24 32
24 51
24 52
24 55
24 60
24 27
24 45
24 49
24 63
24 64
24 66
25 26
25 27
25 28
25 29
25 30
25 31
25 32
25 33
25 34
25 35
25 40
25 41
25 42
25 43
25 49
25 54
25 57
25 62
25 63
25 52
25 58
26 27
26 28
26 29
26 30
26 31
26 32
26 33
26 34
26 35
26 40
26 41
26 42
26 43
26 38
26 46
26 47
26 48
26 49
26 50
26 51
26 52
26 37
26 60
26 58
26 53
26 54
26 65
26 55
27 28
27 29
27 30
27 34
27 38
27 42
27 43
27 46
27 47
27 49
27 37
27 52
27 56
27 63
27 64
27 65
27 45
27 55
27 60
27 66
28 29
28 30
28 31
28 32
28 33
28 34
28 35
28 37
28 60
28 40
28 44
28 46
28 50
28 52
28 61
28 53
28 59
28 63
28 64
28 49
28 54
28 55
29 30
29 35
29 43
29 49
29 54
29 57
29 62
29 63
29 46
29 50
29 53
29 58
29 66
29 39
29 40
29 42
29 56
30 34
30 36
30 40
30 44
30 45
30 38
30 46
30 47
30 48
30 49
30 50
30 51
30 52
30 53
30 59
30 61
30 63
30 64
31 32
31 33
31 34
31 40
31 45
31 46
31 55
31 56
31 57
31 36
31 37
31 44
31 48
31 58
31 59
31 35
31 60
31 39
31 43
31 53
31 62
32 33
32 34
32 40
32 44
32 46
32 50
32 52
32 60
32 61
32 58
32 51
32 55
33 34
33 35
33 36
33 37
33 38
33 39
33 44
33 52
33 54
33 49
33 53
33 43
33 62
33 46
33 57
33 65
34 36
34 40
34 44
34 45
34 49
34 53
34 54
34 38
34 42
34 43
34 46
34 47
35 36
35 37
35 38
35 39
35 40
35 41
35 42
35 43
35 60
35 49
35 54
35 57
35 62
35 63
35 44
35 55
35 59
36 37
36 38
36 39
36 40
36 44
36 45
36 48
36 58
36 59
37 38
37 39
37 44
37 48
37 58
37 59
37 60
37 49
37 52
37 56
37 63
37 64
37 65
38 39
38 46
38 47
38 48
38 49
38 50
38 51
38 52
38 42
38 43
39 43
39 53
39 62
39 46
39 49
39 57
39 65
39 40
39 42
39 56
40 41
40 42
40 43
40 44
40 45
40 46
40 55
40 56
40 57
40 50
40 52
40 60
40 61
41 42
41 43
42 43
42 46
42 47
42 49
42 56
43 48
43 49
43 50
43 52
43 53
43 54
43 57
43 62
43 63
43 46
43 65
43 47
44 45
44 52
44 54
44 48
44 58
44 59
44 46
44 50
44 60
44 61
44 55
45 46
45 55
45 56
45 57
45 49
45 60
45 63
45 64
45 66
46 47
46 48
46 49
46 50
46 51
46 52
46 55
46 56
46 57
46 60
46 61
46 53
46 54
46 65
46 58
46 63
46 66
47 48
47 49
47 50
47 51
47 52
48 49
48 50
48 51
48 52
48 53
48 58
48 59
48 54
48 65
49 50
49 51
49 52
49 53
49 54
49 57
49 62
49 63
49 65
49 56
49 64
49 55
49 60
49 66
50 51
50 52
50 53
50 60
50 61
50 54
50 65
50 58
50 63
50 66
51 52
51 55
51 60
52 53
52 54
52 60
52 61
52 58
52 55
52 56
52 63
52 64
52 65
53 59
53 61
53 63
53 64
53 54
53 65
53 62
53 58
53 66
54 57
54 62
54 63
54 65
54 58
54 66
55 56
55 57
55 60
55 59
55 63
55 64
55 66
56 57
56 63
56 64
56 65
57 62
57 63
57 65
58 59
58 63
58 66
59 61
59 63
59 64
60 61
60 63
60 64
60 66
61 63
61 64
62 63
63 64
63 66
63 65
64 65
64 66
